NAME : ch130.7520.tour
COMMENT : Cost = 1528_7520
COMMENT : Found by LKH [Keld Helsgaun] Thu Nov 16 17:25:52 2017
TYPE : TOUR
DIMENSION : 134
TOUR_SECTION
1
2
118
35
4
44
42
51
60
120
53
58
49
72
91
6
102
55
122
40
47
37
93
20
46
80
50
130
133
104
43
110
89
94
77
103
82
101
123
111
119
84
36
32
113
98
25
48
68
63
107
127
132
34
17
31
27
19
100
15
29
24
116
95
79
87
12
81
65
56
57
9
52
75
74
99
73
92
38
106
54
131
71
3
114
126
8
108
18
21
33
22
23
14
10
96
67
13
121
78
66
85
125
90
59
30
83
117
39
41
134
129
124
26
97
70
7
88
86
69
64
61
109
76
11
5
45
16
128
105
62
28
115
112
-1
EOF
